NAME : X_18_seed_123_id_15
TYPE : CVRP
DIMENSION : 181
EDGE_WEIGHT_TYPE : EUC_2D
CAPACITY : 8
NODE_COORD_SECTION
1	800	114
2	92	189
3	824	656
4	904	655
5	742	760
6	122	1000
7	242	117
8	185	62
9	780	652
10	789	692
11	131	241
12	911	726
13	163	984
14	137	916
15	879	537
16	954	704
17	805	604
18	117	993
19	717	834
20	744	820
21	817	671
22	983	688
23	789	455
24	71	991
25	867	426
26	322	169
27	819	769
28	723	634
29	172	136
30	995	646
31	743	672
32	736	754
33	787	613
34	801	710
35	267	838
36	878	782
37	72	188
38	975	679
39	727	787
40	158	928
41	926	650
42	862	633
43	768	674
44	343	131
45	752	816
46	747	765
47	703	729
48	812	575
49	744	668
50	817	595
51	924	698
52	110	246
53	792	659
54	905	706
55	999	671
56	735	764
57	801	808
58	936	677
59	832	640
60	187	147
61	893	694
62	170	201
63	93	203
64	834	725
65	709	768
66	812	656
67	855	594
68	677	590
69	892	676
70	856	767
71	781	763
72	908	694
73	936	737
74	956	507
75	726	726
76	713	691
77	868	768
78	192	249
79	835	700
80	216	120
81	107	149
82	94	129
83	100	994
84	855	626
85	894	627
86	170	96
87	855	545
88	707	796
89	783	750
90	827	626
91	745	776
92	154	148
93	784	677
94	36	947
95	67	845
96	719	656
97	304	23
98	44	199
99	691	693
100	69	238
101	722	753
102	165	66
103	126	958
104	780	590
105	687	692
106	774	748
107	203	68
108	69	219
109	971	678
110	826	725
111	727	758
112	957	614
113	840	670
114	106	971
115	839	599
116	862	709
117	822	718
118	178	896
119	971	590
120	927	723
121	96	887
122	186	933
123	62	927
124	832	680
125	86	148
126	55	126
127	770	760
128	946	728
129	136	977
130	159	151
131	95	122
132	891	687
133	956	593
134	829	630
135	109	162
136	981	648
137	705	818
138	88	175
139	920	991
140	353	158
141	831	660
142	760	938
143	68	932
144	646	744
145	757	826
146	130	249
147	105	201
148	646	780
149	897	605
150	701	665
151	728	867
152	133	867
153	204	61
154	920	648
155	704	752
156	827	567
157	812	780
158	939	603
159	774	767
160	244	104
161	800	659
162	692	617
163	710	909
164	267	92
165	914	696
166	324	262
167	46	211
168	832	837
169	74	983
170	155	192
171	976	613
172	227	154
173	763	555
174	126	228
175	679	840
176	774	723
177	835	665
178	837	713
179	312	64
180	70	347
181	771	695
DEMAND_SECTION
1	0
2	1
3	1
4	1
5	1
6	1
7	1
8	1
9	1
10	1
11	1
12	1
13	1
14	1
15	1
16	1
17	1
18	1
19	1
20	1
21	1
22	1
23	1
24	1
25	1
26	1
27	1
28	1
29	1
30	1
31	1
32	1
33	1
34	1
35	1
36	1
37	1
38	1
39	1
40	1
41	1
42	1
43	1
44	1
45	1
46	1
47	1
48	1
49	1
50	1
51	1
52	1
53	1
54	1
55	1
56	1
57	1
58	1
59	1
60	1
61	1
62	1
63	1
64	1
65	1
66	1
67	1
68	1
69	1
70	1
71	1
72	1
73	1
74	1
75	1
76	1
77	1
78	1
79	1
80	1
81	1
82	1
83	1
84	1
85	1
86	1
87	1
88	1
89	1
90	1
91	1
92	1
93	1
94	1
95	1
96	1
97	1
98	1
99	1
100	1
101	1
102	1
103	1
104	1
105	1
106	1
107	1
108	1
109	1
110	1
111	1
112	1
113	1
114	1
115	1
116	1
117	1
118	1
119	1
120	1
121	1
122	1
123	1
124	1
125	1
126	1
127	1
128	1
129	1
130	1
131	1
132	1
133	1
134	1
135	1
136	1
137	1
138	1
139	1
140	1
141	1
142	1
143	1
144	1
145	1
146	1
147	1
148	1
149	1
150	1
151	1
152	1
153	1
154	1
155	1
156	1
157	1
158	1
159	1
160	1
161	1
162	1
163	1
164	1
165	1
166	1
167	1
168	1
169	1
170	1
171	1
172	1
173	1
174	1
175	1
176	1
177	1
178	1
179	1
180	1
181	1
DEPOT_SECTION
1
-1
EOF
